22
35 103 75 93 70 109
31 29 30 32 33
15 14 17 13 11
111 5 101 117 61 89
18 19 21 16 20
39 88 104 62 94 87
8 7 9 12 10
91 41 44 96 106 112
26 28 27 25 24
37 38 36 43 46
34 79 84 72 116 86
40 99 56 76 120 80
71 73 77 67 68 108
107 105 98
54 53 52 57 85
60 23 69 95 118 110
42 78 59 74 119 92
22 82 83 58 114 113
45 55 102 66 115 90
64 63 100 65 97 81
1 4 6 3 2
50 48 51 49 47
